out/bwp_7_11_1_lp.out
5
-0 -0    0 0
6 2    6 2
1 -0    2 0
-0 1    0 2
-0 3    0 4
1 4    2 4
3 -0    4 1
5 -0    6 1
1 1    2 2
3 3    4 4
5 3    6 4
